SECTION Graph
Nodes 703
Edges 1616
E 1 30 1
E 1 217 8
E 1 601 1
E 2 13 2
E 2 31 1
E 2 218 8
E 3 4 1
E 3 32 1
E 3 220 8
E 3 606 1
E 4 33 1
E 4 221 8
E 4 613 2
E 5 9 1
E 5 621 1
E 5 625 1
E 6 10 1
E 6 629 1
E 7 11 1
E 7 206 1
E 7 618 5
E 8 12 1
E 8 622 2
E 8 632 5
E 8 661 43
E 9 14 1
E 9 619 1
E 10 15 1
E 10 628 1
E 11 16 1
E 11 209 1
E 12 17 1
E 12 21 43
E 12 215 2
E 13 38 1
E 13 606 1
E 13 616 8
E 14 618 1
E 15 625 2
E 15 627 1
E 16 216 1
E 16 598 8
E 17 221 2
E 17 613 8
E 17 658 43
E 18 19 1
E 18 24 1
E 18 613 43
E 18 658 8
E 19 25 1
E 19 657 2
E 19 659 8
E 20 663 5
E 20 664 1
E 21 658 1
E 21 660 1
E 21 661 1
E 22 660 2
E 22 662 1
E 23 645 1
E 23 646 1
E 23 648 2
E 23 650 5
E 24 25 1
E 24 612 43
E 24 652 8
E 25 654 8
E 25 656 2
E 26 44 43
E 26 649 1
E 26 651 1
E 26 652 1
E 27 651 2
E 27 653 1
E 27 655 1
E 28 41 1
E 28 49 3
E 28 565 1
E 28 566 1
E 29 42 1
E 29 50 3
E 29 578 1
E 29 579 1
E 30 31 1
E 30 228 8
E 30 597 1
E 31 38 2
E 31 229 8
E 32 33 1
E 32 231 8
E 32 604 1
E 33 232 8
E 33 612 2
E 34 43 1
E 34 222 1
E 34 561 5
E 35 44 1
E 35 226 2
E 35 586 5
E 35 649 43
E 36 41 1
E 36 58 3
E 36 561 1
E 37 42 1
E 37 59 3
E 37 565 2
E 37 572 1
E 38 590 8
E 38 604 1
E 39 43 1
E 39 227 1
E 39 594 8
E 40 44 1
E 40 232 2
E 40 612 8
E 40 652 43
E 41 53 3
E 41 563 1
E 42 54 3
E 42 575 1
E 43 233 1
E 44 239 2
E 45 46 1
E 45 74 1
E 45 253 8
E 45 536 1
E 46 57 2
E 46 75 1
E 46 254 8
E 47 48 1
E 47 76 1
E 47 256 8
E 47 541 1
E 48 77 1
E 48 257 8
E 48 548 2
E 49 53 1
E 49 555 1
E 49 558 1
E 50 54 1
E 50 564 1
E 50 569 1
E 51 55 1
E 51 240 1
E 51 552 5
E 52 56 1
E 52 244 2
E 52 571 5
E 52 635 43
E 53 58 1
E 53 553 1
E 54 59 1
E 54 562 1
E 55 60 1
E 55 245 1
E 56 61 1
E 56 65 43
E 56 251 2
E 57 82 1
E 57 541 1
E 57 551 8
E 58 552 1
E 59 558 2
E 59 560 1
E 60 252 1
E 60 533 8
E 61 257 2
E 61 548 8
E 61 631 43
E 62 63 1
E 62 68 1
E 62 548 43
E 62 631 8
E 63 69 1
E 63 626 2
E 63 633 8
E 64 637 5
E 64 639 1
E 64 641 1
E 64 642 2
E 65 631 1
E 65 634 1
E 65 635 1
E 66 634 2
E 66 636 1
E 66 638 1
E 67 599 1
E 67 600 1
E 67 603 2
E 67 607 5
E 68 69 1
E 68 547 43
E 68 609 8
E 69 611 8
E 69 624 2
E 70 88 43
E 70 605 1
E 70 608 1
E 70 609 1
E 71 608 2
E 71 610 1
E 71 614 1
E 72 85 1
E 72 93 3
E 72 500 1
E 72 501 1
E 73 86 1
E 73 94 3
E 73 514 1
E 73 515 1
E 74 75 1
E 74 264 8
E 74 532 1
E 75 82 2
E 75 265 8
E 76 77 1
E 76 267 8
E 76 539 1
E 77 268 8
E 77 547 2
E 78 87 1
E 78 258 1
E 78 494 5
E 79 88 1
E 79 262 2
E 79 522 5
E 79 605 43
E 80 85 1
E 80 102 3
E 80 494 1
E 81 86 1
E 81 103 3
E 81 500 2
E 81 508 1
E 82 525 8
E 82 539 1
E 83 87 1
E 83 263 1
E 83 529 8
E 84 88 1
E 84 268 2
E 84 547 8
E 84 609 43
E 85 97 3
E 85 497 1
E 86 98 3
E 86 511 1
E 87 269 1
E 88 275 2
E 89 90 1
E 89 118 1
E 89 289 8
E 89 463 1
E 90 101 2
E 90 119 1
E 90 290 8
E 91 92 1
E 91 120 1
E 91 292 8
E 91 468 1
E 92 121 1
E 92 293 8
E 92 475 2
E 93 97 1
E 93 486 1
E 93 490 1
E 94 98 1
E 94 499 1
E 94 505 1
E 95 99 1
E 95 276 1
E 95 479 4
E 96 100 1
E 96 280 2
E 96 504 4
E 96 577 43
E 97 102 1
E 97 483 1
E 98 103 1
E 98 496 1
E 99 104 1
E 99 281 1
E 100 105 1
E 100 109 43
E 100 287 2
E 101 126 1
E 101 468 1
E 101 478 8
E 102 481 1
E 103 490 2
E 103 493 1
E 104 288 1
E 104 460 8
E 105 293 2
E 105 475 8
E 105 570 43
E 106 107 1
E 106 112 1
E 106 475 43
E 106 570 8
E 107 113 1
E 107 559 2
E 107 573 8
E 108 582 5
E 108 588 1
E 108 592 1
E 108 593 2
E 109 570 1
E 109 576 1
E 109 577 1
E 110 576 2
E 110 581 1
E 110 585 1
E 111 534 1
E 111 535 1
E 111 538 2
E 111 542 5
E 112 113 1
E 112 474 43
E 112 544 8
E 113 546 8
E 113 557 2
E 114 132 43
E 114 540 1
E 114 543 1
E 114 544 1
E 115 543 2
E 115 545 1
E 115 549 1
E 116 129 1
E 116 137 3
E 116 428 1
E 116 429 1
E 117 130 1
E 117 138 3
E 117 441 1
E 117 442 1
E 118 119 1
E 118 300 8
E 118 459 1
E 119 126 2
E 119 301 8
E 120 121 1
E 120 303 8
E 120 466 1
E 121 304 8
E 121 474 2
E 122 131 1
E 122 294 1
E 122 424 5
E 123 132 1
E 123 298 2
E 123 449 5
E 123 540 43
E 124 129 1
E 124 146 3
E 124 424 1
E 125 130 1
E 125 147 3
E 125 428 2
E 125 435 1
E 126 452 8
E 126 466 1
E 127 131 1
E 127 299 1
E 127 456 8
E 128 132 1
E 128 304 2
E 128 474 8
E 128 544 43
E 129 141 3
E 129 426 1
E 130 142 3
E 130 438 1
E 131 305 1
E 132 311 2
E 133 134 1
E 133 162 1
E 133 325 8
E 133 401 1
E 134 145 2
E 134 163 1
E 134 326 8
E 135 136 1
E 135 164 1
E 135 328 8
E 135 403 1
E 136 165 1
E 136 329 8
E 136 407 2
E 137 141 1
E 137 418 1
E 137 421 1
E 138 142 1
E 138 427 1
E 138 432 1
E 139 143 1
E 139 312 1
E 139 413 5
E 140 144 1
E 140 316 2
E 140 434 5
E 140 513 43
E 141 146 1
E 141 415 1
E 142 147 1
E 142 425 1
E 143 148 1
E 143 317 1
E 144 149 1
E 144 153 43
E 144 323 2
E 145 170 1
E 145 403 1
E 145 409 8
E 146 413 1
E 147 421 2
E 147 423 1
E 148 324 1
E 148 400 8
E 149 329 2
E 149 407 8
E 149 506 43
E 150 151 1
E 150 156 1
E 150 407 43
E 150 506 8
E 151 157 1
E 151 491 2
E 151 509 8
E 152 518 5
E 152 523 1
E 152 527 1
E 152 528 2
E 153 506 1
E 153 512 1
E 153 513 1
E 154 512 2
E 154 517 1
E 154 521 1
E 155 461 1
E 155 462 1
E 155 465 2
E 155 469 5
E 156 157 1
E 156 405 43
E 156 471 8
E 157 473 8
E 157 488 2
E 158 176 43
E 158 467 1
E 158 470 1
E 158 471 1
E 159 470 2
E 159 472 1
E 159 476 1
E 160 173 1
E 160 181 3
E 160 381 1
E 160 382 1
E 161 174 1
E 161 182 3
E 161 390 1
E 161 391 1
E 162 163 1
E 162 336 8
E 162 399 1
E 163 170 2
E 163 337 8
E 164 165 1
E 164 339 8
E 164 402 1
E 165 340 8
E 165 405 2
E 166 175 1
E 166 330 1
E 166 377 5
E 167 176 1
E 167 334 2
E 167 395 5
E 167 467 43
E 168 173 1
E 168 190 3
E 168 377 1
E 169 174 1
E 169 191 3
E 169 381 2
E 169 387 1
E 170 397 8
E 170 402 1
E 171 175 1
E 171 335 1
E 171 398 8
E 172 176 1
E 172 340 2
E 172 405 8
E 172 471 43
E 173 185 3
E 173 379 1
E 174 186 3
E 174 389 1
E 175 341 1
E 176 347 2
E 177 178 1
E 177 359 8
E 178 189 2
E 178 360 8
E 179 180 1
E 179 362 8
E 179 364 1
E 180 363 8
E 180 365 2
E 181 185 1
E 181 373 1
E 181 375 1
E 182 186 1
E 182 380 1
E 182 385 1
E 183 187 1
E 183 348 1
E 183 370 5
E 184 188 1
E 184 352 2
E 184 386 5
E 184 440 43
E 185 190 1
E 185 371 1
E 186 191 1
E 186 378 1
E 187 192 1
E 187 366 1
E 188 193 1
E 188 197 43
E 188 357 2
E 189 364 1
E 189 368 8
E 190 370 1
E 191 375 2
E 191 376 1
E 192 358 1
E 193 363 2
E 193 365 8
E 193 433 43
E 194 195 1
E 194 365 43
E 194 414 1
E 194 433 8
E 195 199 1
E 195 422 2
E 195 436 8
E 196 445 5
E 196 450 1
E 196 454 1
E 196 455 2
E 197 433 1
E 197 439 1
E 197 440 1
E 198 439 2
E 198 444 1
E 198 448 1
E 199 200 2
E 199 412 2
E 199 414 1
E 200 416 2
E 200 422 1
E 201 404 1
E 201 410 7
E 202 406 2
E 202 411 3
E 202 420 7
E 203 411 6
E 204 411 7
E 204 420 3
E 205 479 105
E 206 209 1
E 206 615 1
E 206 619 5
E 207 208 1
E 207 212 1
E 207 617 2
E 207 627 5
E 208 213 1
E 208 620 1
E 208 628 5
E 209 210 1
E 209 216 1
E 210 211 1
E 210 217 1
E 210 615 1
E 211 212 2
E 211 218 1
E 211 617 1
E 212 213 1
E 212 616 1
E 213 214 1
E 213 219 1
E 214 215 1
E 214 220 1
E 214 620 1
E 215 221 1
E 215 622 1
E 216 217 1
E 216 601 8
E 217 218 1
E 218 616 2
E 219 220 1
E 219 606 8
E 219 616 1
E 220 221 1
E 222 233 1
E 222 563 5
E 222 580 1
E 223 224 2
E 223 235 1
E 223 568 5
E 223 580 1
E 224 225 1
E 224 236 1
E 224 572 5
E 225 237 1
E 225 575 5
E 225 589 1
E 226 239 1
E 226 583 5
E 226 589 1
E 227 228 1
E 227 233 1
E 227 597 8
E 228 229 1
E 228 234 1
E 229 235 1
E 229 590 2
E 230 231 1
E 230 237 1
E 230 590 1
E 230 604 8
E 231 232 1
E 231 238 1
E 232 239 1
E 233 234 1
E 234 235 1
E 234 580 1
E 235 236 2
E 236 237 1
E 236 590 1
E 237 238 1
E 238 239 1
E 238 589 1
E 240 245 1
E 240 550 1
E 240 553 5
E 241 242 2
E 241 247 1
E 241 550 1
E 241 556 5
E 242 243 1
E 242 248 1
E 242 560 5
E 243 249 1
E 243 554 1
E 243 562 5
E 244 251 1
E 244 554 1
E 244 567 5
E 245 246 1
E 245 252 1
E 246 247 1
E 246 253 1
E 246 550 1
E 247 248 2
E 247 254 1
E 248 249 1
E 248 551 1
E 249 250 1
E 249 255 1
E 250 251 1
E 250 256 1
E 250 554 1
E 251 257 1
E 252 253 1
E 252 536 8
E 253 254 1
E 254 551 2
E 255 256 1
E 255 541 8
E 255 551 1
E 256 257 1
E 258 269 1
E 258 497 5
E 258 516 1
E 259 260 2
E 259 271 1
E 259 503 5
E 259 516 1
E 260 261 1
E 260 272 1
E 260 508 5
E 261 273 1
E 261 511 5
E 261 524 1
E 262 275 1
E 262 519 5
E 262 524 1
E 263 264 1
E 263 269 1
E 263 532 8
E 264 265 1
E 264 270 1
E 265 271 1
E 265 525 2
E 266 267 1
E 266 273 1
E 266 525 1
E 266 539 8
E 267 268 1
E 267 274 1
E 268 275 1
E 269 270 1
E 270 271 1
E 270 516 1
E 271 272 2
E 272 273 1
E 272 525 1
E 273 274 1
E 274 275 1
E 274 524 1
E 276 281 1
E 276 477 1
E 276 480 4
E 277 278 2
E 277 283 1
E 277 477 1
E 277 485 4
E 278 279 1
E 278 284 1
E 278 489 4
E 279 285 1
E 279 484 1
E 279 492 4
E 280 287 1
E 280 484 1
E 280 498 4
E 281 282 1
E 281 288 1
E 282 283 1
E 282 289 1
E 282 477 1
E 283 284 2
E 283 290 1
E 284 285 1
E 284 478 1
E 285 286 1
E 285 291 1
E 286 287 1
E 286 292 1
E 286 484 1
E 287 293 1
E 288 289 1
E 288 463 8
E 289 290 1
E 290 478 2
E 291 292 1
E 291 468 8
E 291 478 1
E 292 293 1
E 294 305 1
E 294 426 5
E 294 443 1
E 295 296 2
E 295 307 1
E 295 431 5
E 295 443 1
E 296 297 1
E 296 308 1
E 296 435 5
E 297 309 1
E 297 438 5
E 297 451 1
E 298 311 1
E 298 446 5
E 298 451 1
E 299 300 1
E 299 305 1
E 299 459 8
E 300 301 1
E 300 306 1
E 301 307 1
E 301 452 2
E 302 303 1
E 302 309 1
E 302 452 1
E 302 466 8
E 303 304 1
E 303 310 1
E 304 311 1
E 305 306 1
E 306 307 1
E 306 443 1
E 307 308 2
E 308 309 1
E 308 452 1
E 309 310 1
E 310 311 1
E 310 451 1
E 312 317 1
E 312 408 1
E 312 415 5
E 313 314 2
E 313 319 1
E 313 408 1
E 313 419 5
E 314 315 1
E 314 320 1
E 314 423 5
E 315 321 1
E 315 417 1
E 315 425 5
E 316 323 1
E 316 417 1
E 316 430 5
E 317 318 1
E 317 324 1
E 318 319 1
E 318 325 1
E 318 408 1
E 319 320 2
E 319 326 1
E 320 321 1
E 320 409 1
E 321 322 1
E 321 327 1
E 322 323 1
E 322 328 1
E 322 417 1
E 323 329 1
E 324 325 1
E 324 401 8
E 325 326 1
E 326 409 2
E 327 328 1
E 327 403 8
E 327 409 1
E 328 329 1
E 330 341 1
E 330 379 5
E 330 392 1
E 331 332 2
E 331 343 1
E 331 384 5
E 331 392 1
E 332 333 1
E 332 344 1
E 332 387 5
E 333 345 1
E 333 389 5
E 333 396 1
E 334 347 1
E 334 393 5
E 334 396 1
E 335 336 1
E 335 341 1
E 335 399 8
E 336 337 1
E 336 342 1
E 337 343 1
E 337 397 2
E 338 339 1
E 338 345 1
E 338 397 1
E 338 402 8
E 339 340 1
E 339 346 1
E 340 347 1
E 341 342 1
E 342 343 1
E 342 392 1
E 343 344 2
E 344 345 1
E 344 397 1
E 345 346 1
E 346 347 1
E 346 396 1
E 348 366 1
E 348 367 1
E 348 371 5
E 349 350 2
E 349 354 1
E 349 367 1
E 349 374 5
E 350 351 1
E 350 355 1
E 350 376 5
E 351 369 1
E 351 372 1
E 351 378 5
E 352 357 1
E 352 372 1
E 352 383 5
E 353 354 1
E 353 359 1
E 353 366 1
E 353 367 1
E 354 355 2
E 354 360 1
E 355 368 1
E 355 369 1
E 356 357 1
E 356 362 1
E 356 369 1
E 356 372 1
E 357 363 1
E 358 359 1
E 358 366 1
E 359 360 1
E 360 368 2
E 361 362 1
E 361 364 8
E 361 368 1
E 361 369 1
E 362 363 1
E 367 373 5
E 370 371 1
E 371 373 1
E 372 380 5
E 373 374 1
E 374 375 1
E 374 376 2
E 375 381 3
E 376 378 1
E 377 379 1
E 378 380 1
E 379 382 1
E 380 383 1
E 381 384 1
E 382 384 1
E 382 392 5
E 383 385 1
E 383 386 2
E 384 387 2
E 385 388 2
E 385 390 3
E 386 388 1
E 386 450 43
E 387 389 1
E 388 394 3
E 388 453 43
E 389 391 1
E 390 393 1
E 390 394 2
E 391 393 1
E 391 396 5
E 393 395 2
E 394 395 1
E 394 458 43
E 395 462 43
E 398 399 1
E 398 400 1
E 399 401 1
E 400 401 1
E 402 403 1
E 404 406 2
E 404 412 7
E 405 407 1
E 406 416 7
E 408 418 5
E 410 412 1
E 410 414 2
E 412 416 2
E 413 415 1
E 415 418 1
E 416 420 2
E 417 427 5
E 418 419 1
E 419 421 1
E 419 423 2
E 421 428 3
E 422 444 8
E 423 425 1
E 424 426 1
E 425 427 1
E 426 429 1
E 427 430 1
E 428 431 1
E 429 431 1
E 429 443 5
E 430 432 1
E 430 434 2
E 431 435 2
E 432 437 2
E 432 441 3
E 433 436 1
E 434 437 1
E 434 523 43
E 435 438 1
E 436 439 1
E 436 444 2
E 437 447 3
E 437 526 43
E 438 442 1
E 439 445 1
E 440 445 1
E 440 450 5
E 441 446 1
E 441 447 2
E 442 446 1
E 442 451 5
E 445 448 2
E 446 449 2
E 447 449 1
E 447 531 43
E 448 455 5
E 449 535 43
E 450 453 1
E 453 454 1
E 453 458 3
E 454 457 2
E 454 461 3
E 455 457 1
E 456 459 1
E 456 460 1
E 457 464 3
E 458 461 1
E 458 462 1
E 459 463 1
E 460 463 1
E 461 464 2
E 462 467 5
E 464 465 1
E 465 472 5
E 466 468 1
E 467 469 1
E 469 470 1
E 469 472 2
E 470 473 1
E 471 473 1
E 473 476 2
E 474 475 1
E 476 488 8
E 477 482 4
E 479 480 1
E 479 481 1
E 480 482 1
E 480 483 1
E 481 483 1
E 482 485 1
E 482 486 1
E 483 486 1
E 484 495 4
E 485 487 1
E 485 489 2
E 486 487 1
E 487 490 1
E 487 493 2
E 488 491 1
E 489 492 1
E 489 493 1
E 490 500 3
E 491 517 8
E 492 495 1
E 492 496 1
E 493 496 1
E 494 497 1
E 495 498 1
E 495 499 1
E 496 499 1
E 497 501 1
E 498 502 1
E 498 504 2
E 499 502 1
E 500 503 1
E 501 503 1
E 501 516 5
E 502 505 1
E 502 507 2
E 503 508 2
E 504 507 1
E 504 587 43
E 505 510 2
E 505 514 3
E 506 509 1
E 507 510 1
E 507 588 43
E 508 511 1
E 509 512 1
E 509 517 2
E 510 520 3
E 510 591 43
E 511 515 1
E 512 518 1
E 513 518 1
E 513 523 5
E 514 519 1
E 514 520 2
E 515 519 1
E 515 524 5
E 518 521 2
E 519 522 2
E 520 522 1
E 520 596 43
E 521 528 5
E 522 600 43
E 523 526 1
E 526 527 1
E 526 531 3
E 527 530 2
E 527 534 3
E 528 530 1
E 529 532 1
E 529 533 1
E 530 537 3
E 531 534 1
E 531 535 1
E 532 536 1
E 533 536 1
E 534 537 2
E 535 540 5
E 537 538 1
E 538 545 5
E 539 541 1
E 540 542 1
E 542 543 1
E 542 545 2
E 543 546 1
E 544 546 1
E 546 549 2
E 547 548 1
E 549 557 8
E 550 555 5
E 552 553 1
E 553 555 1
E 554 564 5
E 555 556 1
E 556 558 1
E 556 560 2
E 557 559 1
E 558 565 3
E 559 581 8
E 560 562 1
E 561 563 1
E 562 564 1
E 563 566 1
E 564 567 1
E 565 568 1
E 566 568 1
E 566 580 5
E 567 569 1
E 567 571 2
E 568 572 2
E 569 574 2
E 569 578 3
E 570 573 1
E 571 574 1
E 571 639 43
E 572 575 1
E 573 576 1
E 573 581 2
E 574 584 3
E 574 640 43
E 575 579 1
E 576 582 1
E 577 582 1
E 577 587 4
E 578 583 1
E 578 584 2
E 579 583 1
E 579 589 5
E 582 585 2
E 583 586 2
E 584 586 1
E 584 644 43
E 585 593 5
E 586 646 43
E 587 588 1
E 588 591 1
E 591 592 1
E 591 596 3
E 592 595 2
E 592 599 3
E 593 595 1
E 594 597 1
E 594 598 1
E 595 602 3
E 596 599 1
E 596 600 1
E 597 601 1
E 598 601 1
E 599 602 2
E 600 605 5
E 602 603 1
E 603 610 5
E 604 606 1
E 605 607 1
E 607 608 1
E 607 610 2
E 608 611 1
E 609 611 1
E 611 614 2
E 612 613 1
E 614 624 8
E 615 617 1
E 615 621 5
E 617 623 5
E 618 619 1
E 619 621 1
E 620 622 1
E 620 629 5
E 621 623 1
E 622 630 5
E 623 625 1
E 623 627 2
E 624 626 1
E 626 636 8
E 627 628 1
E 628 629 1
E 629 630 1
E 630 632 2
E 631 633 1
E 632 664 43
E 633 634 1
E 633 636 2
E 634 637 1
E 635 637 1
E 635 639 5
E 637 638 2
E 638 642 5
E 639 640 1
E 640 641 1
E 640 644 3
E 641 643 2
E 641 645 3
E 642 643 1
E 643 647 3
E 644 645 1
E 644 646 1
E 645 647 2
E 646 649 5
E 647 648 1
E 648 653 5
E 649 650 1
E 650 651 1
E 650 653 2
E 651 654 1
E 652 654 1
E 654 655 2
E 655 656 8
E 656 657 1
E 657 662 8
E 658 659 1
E 659 660 1
E 659 662 2
E 660 663 1
E 661 663 1
E 661 664 5
E 1 665 100000
E 2 665 100000
E 3 665 100000
E 4 665 100000
E 5 665 100000
E 6 665 100000
E 7 665 100000
E 8 665 100000
E 9 666 100000
E 10 666 100000
E 11 666 100000
E 12 666 100000
E 13 667 100000
E 14 667 100000
E 15 667 100000
E 16 667 100000
E 17 667 100000
E 18 668 100000
E 19 668 100000
E 20 668 100000
E 21 668 100000
E 22 668 100000
E 23 669 100000
E 24 669 100000
E 25 669 100000
E 26 669 100000
E 27 669 100000
E 28 670 100000
E 29 670 100000
E 30 670 100000
E 31 670 100000
E 32 670 100000
E 33 670 100000
E 34 670 100000
E 35 670 100000
E 36 671 100000
E 37 671 100000
E 38 671 100000
E 39 671 100000
E 40 671 100000
E 41 672 100000
E 42 672 100000
E 43 672 100000
E 44 672 100000
E 45 673 100000
E 46 673 100000
E 47 673 100000
E 48 673 100000
E 49 673 100000
E 50 673 100000
E 51 673 100000
E 52 673 100000
E 53 674 100000
E 54 674 100000
E 55 674 100000
E 56 674 100000
E 57 675 100000
E 58 675 100000
E 59 675 100000
E 60 675 100000
E 61 675 100000
E 62 676 100000
E 63 676 100000
E 64 676 100000
E 65 676 100000
E 66 676 100000
E 67 677 100000
E 68 677 100000
E 69 677 100000
E 70 677 100000
E 71 677 100000
E 72 678 100000
E 73 678 100000
E 74 678 100000
E 75 678 100000
E 76 678 100000
E 77 678 100000
E 78 678 100000
E 79 678 100000
E 80 679 100000
E 81 679 100000
E 82 679 100000
E 83 679 100000
E 84 679 100000
E 85 680 100000
E 86 680 100000
E 87 680 100000
E 88 680 100000
E 89 681 100000
E 90 681 100000
E 91 681 100000
E 92 681 100000
E 93 681 100000
E 94 681 100000
E 95 681 100000
E 96 681 100000
E 97 682 100000
E 98 682 100000
E 99 682 100000
E 100 682 100000
E 101 683 100000
E 102 683 100000
E 103 683 100000
E 104 683 100000
E 105 683 100000
E 106 684 100000
E 107 684 100000
E 108 684 100000
E 109 684 100000
E 110 684 100000
E 111 685 100000
E 112 685 100000
E 113 685 100000
E 114 685 100000
E 115 685 100000
E 116 686 100000
E 117 686 100000
E 118 686 100000
E 119 686 100000
E 120 686 100000
E 121 686 100000
E 122 686 100000
E 123 686 100000
E 124 687 100000
E 125 687 100000
E 126 687 100000
E 127 687 100000
E 128 687 100000
E 129 688 100000
E 130 688 100000
E 131 688 100000
E 132 688 100000
E 133 689 100000
E 134 689 100000
E 135 689 100000
E 136 689 100000
E 137 689 100000
E 138 689 100000
E 139 689 100000
E 140 689 100000
E 141 690 100000
E 142 690 100000
E 143 690 100000
E 144 690 100000
E 145 691 100000
E 146 691 100000
E 147 691 100000
E 148 691 100000
E 149 691 100000
E 150 692 100000
E 151 692 100000
E 152 692 100000
E 153 692 100000
E 154 692 100000
E 155 693 100000
E 156 693 100000
E 157 693 100000
E 158 693 100000
E 159 693 100000
E 160 694 100000
E 161 694 100000
E 162 694 100000
E 163 694 100000
E 164 694 100000
E 165 694 100000
E 166 694 100000
E 167 694 100000
E 168 695 100000
E 169 695 100000
E 170 695 100000
E 171 695 100000
E 172 695 100000
E 173 696 100000
E 174 696 100000
E 175 696 100000
E 176 696 100000
E 177 697 100000
E 178 697 100000
E 179 697 100000
E 180 697 100000
E 181 697 100000
E 182 697 100000
E 183 697 100000
E 184 697 100000
E 185 698 100000
E 186 698 100000
E 187 698 100000
E 188 698 100000
E 189 699 100000
E 190 699 100000
E 191 699 100000
E 192 699 100000
E 193 699 100000
E 194 700 100000
E 195 700 100000
E 196 700 100000
E 197 700 100000
E 198 700 100000
E 199 701 100000
E 200 701 100000
E 201 701 100000
E 202 701 100000
E 203 702 100000
E 204 702 100000
E 205 703 100000
E 206 665 100000
E 207 665 100000
E 208 665 100000
E 209 666 100000
E 210 666 100000
E 211 666 100000
E 212 666 100000
E 213 666 100000
E 214 666 100000
E 215 666 100000
E 216 667 100000
E 217 667 100000
E 218 667 100000
E 219 667 100000
E 220 667 100000
E 221 667 100000
E 222 670 100000
E 223 670 100000
E 224 670 100000
E 225 670 100000
E 226 670 100000
E 227 671 100000
E 228 671 100000
E 229 671 100000
E 230 671 100000
E 231 671 100000
E 232 671 100000
E 233 672 100000
E 234 672 100000
E 235 672 100000
E 236 672 100000
E 237 672 100000
E 238 672 100000
E 239 672 100000
E 240 673 100000
E 241 673 100000
E 242 673 100000
E 243 673 100000
E 244 673 100000
E 245 674 100000
E 246 674 100000
E 247 674 100000
E 248 674 100000
E 249 674 100000
E 250 674 100000
E 251 674 100000
E 252 675 100000
E 253 675 100000
E 254 675 100000
E 255 675 100000
E 256 675 100000
E 257 675 100000
E 258 678 100000
E 259 678 100000
E 260 678 100000
E 261 678 100000
E 262 678 100000
E 263 679 100000
E 264 679 100000
E 265 679 100000
E 266 679 100000
E 267 679 100000
E 268 679 100000
E 269 680 100000
E 270 680 100000
E 271 680 100000
E 272 680 100000
E 273 680 100000
E 274 680 100000
E 275 680 100000
E 276 681 100000
E 277 681 100000
E 278 681 100000
E 279 681 100000
E 280 681 100000
E 281 682 100000
E 282 682 100000
E 283 682 100000
E 284 682 100000
E 285 682 100000
E 286 682 100000
E 287 682 100000
E 288 683 100000
E 289 683 100000
E 290 683 100000
E 291 683 100000
E 292 683 100000
E 293 683 100000
E 294 686 100000
E 295 686 100000
E 296 686 100000
E 297 686 100000
E 298 686 100000
E 299 687 100000
E 300 687 100000
E 301 687 100000
E 302 687 100000
E 303 687 100000
E 304 687 100000
E 305 688 100000
E 306 688 100000
E 307 688 100000
E 308 688 100000
E 309 688 100000
E 310 688 100000
E 311 688 100000
E 312 689 100000
E 313 689 100000
E 314 689 100000
E 315 689 100000
E 316 689 100000
E 317 690 100000
E 318 690 100000
E 319 690 100000
E 320 690 100000
E 321 690 100000
E 322 690 100000
E 323 690 100000
E 324 691 100000
E 325 691 100000
E 326 691 100000
E 327 691 100000
E 328 691 100000
E 329 691 100000
E 330 694 100000
E 331 694 100000
E 332 694 100000
E 333 694 100000
E 334 694 100000
E 335 695 100000
E 336 695 100000
E 337 695 100000
E 338 695 100000
E 339 695 100000
E 340 695 100000
E 341 696 100000
E 342 696 100000
E 343 696 100000
E 344 696 100000
E 345 696 100000
E 346 696 100000
E 347 696 100000
E 348 697 100000
E 349 697 100000
E 350 697 100000
E 351 697 100000
E 352 697 100000
E 353 698 100000
E 354 698 100000
E 355 698 100000
E 356 698 100000
E 357 698 100000
E 358 699 100000
E 359 699 100000
E 360 699 100000
E 361 699 100000
E 362 699 100000
E 363 699 100000
END

SECTION Terminals
Terminals 39
T 665
T 666
T 667
T 668
T 669
T 670
T 671
T 672
T 673
T 674
T 675
T 676
T 677
T 678
T 679
T 680
T 681
T 682
T 683
T 684
T 685
T 686
T 687
T 688
T 689
T 690
T 691
T 692
T 693
T 694
T 695
T 696
T 697
T 698
T 699
T 700
T 701
T 702
T 703
END

EOF
